unsat
(:SPACER-inductive-gen                6
 :SPACER-inductive-gen-weaken-fail    6
 :SPACER-inductive-level              5
 :SPACER-max-depth                    9
 :SPACER-max-query-lvl                9
 :SPACER-non-local-gen                12
 :SPACER-num-active-lemmas            9
 :SPACER-num-ctp-blocked              7
 :SPACER-num-invariants               5
 :SPACER-num-is_invariant             22
 :SPACER-num-lemmas                   28
 :SPACER-num-pobs                     5
 :SPACER-num-queries                  18
 :added-eqs                           2164
 :arith-assert-diseq                  200
 :arith-assert-lower                  1206
 :arith-assert-upper                  1846
 :arith-bound-prop                    136
 :arith-conflicts                     60
 :arith-eq-adapter                    358
 :arith-fixed-eqs                     200
 :arith-num-rows                      80
 :arith-offset-eqs                    36
 :arith-pivots                        406
 :arith-row-summations                2512
 :arith-tableau-max-columns           150
 :arith-tableau-max-rows              80
 :conflicts                           232
 :decisions                           502
 :del-clause                          1502
 :final-checks                        66
 :iuc_solver.num_proxies              14
 :max-memory                          31.01
 :memory                              30.56
 :minimized-lits                      64
 :mk-bool-var                         2460
 :mk-clause                           1816
 :num-allocs                          10337508
 :num-checks                          200
 :pool_solver.checks                  100
 :pool_solver.checks.sat              12
 :pool_solver.checks.undef            21
 :propagations                        4960
 :rlimit-count                        60753
 :time                                0.07
 :time.iuc_solver.get_iuc             0.01
 :time.iuc_solver.get_iuc.hyp_reduce1 0.00
 :time.iuc_solver.get_iuc.hyp_reduce2 0.00
 :time.iuc_solver.get_iuc.learn_core  0.00
 :time.pool_solver.proof              0.00
 :time.pool_solver.smt.total          0.02
 :time.pool_solver.smt.total.sat      0.00
 :time.pool_solver.smt.total.undef    0.01
 :time.spacer.init_rules              0.00
 :time.spacer.mbp                     0.00
 :time.spacer.solve                   0.06
 :time.spacer.solve.propagate         0.01
 :time.spacer.solve.reach             0.05
 :time.spacer.solve.reach.children    0.00
 :time.spacer.solve.reach.cluster     0.00
 :time.spacer.solve.reach.gen.global  0.00
 :time.spacer.solve.reach.gen.ind     0.00)
(:max-memory   31.01
 :memory       30.56
 :num-allocs   10337508
 :rlimit-count 60753
 :time         0.07
 :total-time   0.09)
